(set-logic QF_SLIA)
(declare-fun var0 () String)
(assert (not (str.in_re var0 (re.++ ((_ re.loop 19 838) (re.++ (re.union (str.to_re "nD{") (re.union (str.to_re "mJc") (re.union (str.to_re "\\") (str.to_re "2(j")))) (re.++ (re.union (str.to_re "Jbv") (re.union (str.to_re "E") (re.union (str.to_re ">") (str.to_re "O")))) (re.++ (re.union (str.to_re "U{M") (re.union (str.to_re "?") (re.union (str.to_re "Xw.") (str.to_re "aq")))) (re.union (str.to_re "wZL") (re.union (str.to_re "'w") (re.union (str.to_re "pC") (str.to_re "!r")))))))) (re.++ ((_ re.loop 7 568) (re.++ (re.union (str.to_re "T") (re.union (str.to_re "'n_") (re.union (str.to_re ".?") (str.to_re "C")))) (re.++ (re.union (str.to_re "iG") (re.union (str.to_re "YT") (re.union (str.to_re "&T") (str.to_re "!")))) (re.++ (re.union (str.to_re "k") (re.union (str.to_re "`b") (re.union (str.to_re "YZh") (str.to_re "A")))) (re.union (str.to_re "e") (re.union (str.to_re "GU") (re.union (str.to_re "N/") (str.to_re "g\\R")))))))) (re.++ ((_ re.loop 13 725) (re.++ (re.union (str.to_re "pUu") (re.union (str.to_re "My") (re.union (str.to_re ",YV") (str.to_re "QK~")))) (re.++ (re.union (str.to_re "o&") (re.union (str.to_re ",h.") (re.union (str.to_re "|dH") (str.to_re "x")))) (re.++ (re.union (str.to_re "fs7") (re.union (str.to_re "[5") (re.union (str.to_re "{-") (str.to_re "mZ")))) (re.union (str.to_re "az") (re.union (str.to_re "s") (re.union (str.to_re "=;`") (str.to_re "#D/")))))))) ((_ re.loop 12 828) (re.++ (re.union (str.to_re "=PH") (re.union (str.to_re "^") (re.union (str.to_re "CLG") (str.to_re "NC")))) (re.++ (re.union (str.to_re "x") (re.union (str.to_re "u") (re.union (str.to_re "IX") (str.to_re "w")))) (re.++ (re.union (str.to_re "Q(k") (re.union (str.to_re "(UJ") (re.union (str.to_re "A0]") (str.to_re "`")))) (re.union (str.to_re "9um") (re.union (str.to_re "b") (re.union (str.to_re "*A?") (str.to_re "I!"))))))))))))))
(assert (not (str.in_re var0 (re.++ ((_ re.loop 16 605) (re.++ (re.union (str.to_re "}{") (re.union (str.to_re "??") (re.union (str.to_re "Up'") (str.to_re "+,]")))) (re.++ (re.union (str.to_re ",IA") (re.union (str.to_re "*@") (re.union (str.to_re "&%") (str.to_re "1")))) (re.++ (re.union (str.to_re ",-") (re.union (str.to_re "#b") (re.union (str.to_re ")W") (str.to_re "eW&")))) (re.union (str.to_re "Z") (re.union (str.to_re "Jf4") (re.union (str.to_re "6#L") (str.to_re "Kf")))))))) (re.++ ((_ re.loop 19 176) (re.++ (re.union (str.to_re "B") (re.union (str.to_re "$@") (re.union (str.to_re "vp(") (str.to_re "ru7")))) (re.++ (re.union (str.to_re "G4p") (re.union (str.to_re "T-") (re.union (str.to_re "f;") (str.to_re "P")))) (re.++ (re.union (str.to_re "F+U") (re.union (str.to_re "J") (re.union (str.to_re "cq") (str.to_re "kM")))) (re.union (str.to_re "6{") (re.union (str.to_re "T") (re.union (str.to_re "_") (str.to_re "F/(")))))))) (re.++ ((_ re.loop 12 420) (re.++ (re.union (str.to_re "dR@") (re.union (str.to_re "gp") (re.union (str.to_re "X|") (str.to_re "a")))) (re.++ (re.union (str.to_re "t") (re.union (str.to_re "%") (re.union (str.to_re "1") (str.to_re "p")))) (re.++ (re.union (str.to_re "_") (re.union (str.to_re "AF") (re.union (str.to_re "F") (str.to_re "#0")))) (re.union (str.to_re "]lp") (re.union (str.to_re "q") (re.union (str.to_re "?:") (str.to_re "&Yp")))))))) ((_ re.loop 20 777) (re.++ (re.union (str.to_re "L!") (re.union (str.to_re "q") (re.union (str.to_re "rS!") (str.to_re "TM?")))) (re.++ (re.union (str.to_re "m#J") (re.union (str.to_re "%") (re.union (str.to_re "#9'") (str.to_re "r")))) (re.++ (re.union (str.to_re ")") (re.union (str.to_re "+F") (re.union (str.to_re "jZ_") (str.to_re "&*+")))) (re.union (str.to_re "]") (re.union (str.to_re "W") (re.union (str.to_re "5") (str.to_re "Nf"))))))))))))))
(assert (not (str.in_re var0 (re.++ (re.* re.allchar) (re.++ (re.union (str.to_re "<") (re.union (str.to_re ">") (re.union (str.to_re "'") (re.union (str.to_re "\u0022") (str.to_re "&"))))) (re.* re.allchar))))))
(assert (<= 50 (str.len var0)))
(check-sat)
(get-model)
